data;

param n:=30;
param p:=3;
param r:=[1] 0 [2] 1 [3] 4 [4] 9 [5] 0 [6] 2 [7] 3 [8] 11 [9] 3 [10] 4 [11] 8 [12] 15 [13] 26 [14] 14 [15] 28 [16] 26 [17] 32 [18] 1 [19] 24 [20] 45 [21] 46 [22] 15 [23] 40 [24] 35 [25] 30 [26] 10 [27] 38 [28] 8 [29] 50 [30] 22 ;
param w:=[1] 60 [2] 64 [3] 48 [4] 51 [5] 47 [6] 80 [7] 49 [8] 62 [9] 77 [10] 31 [11] 69 [12] 32 [13] 85 [14] 46 [15] 65 [16] 7 [17] 8 [18] 65 [19] 70 [20] 36 [21] 49 [22] 62 [23] 96 [24] 62 [25] 100 [26] 1 [27] 20 [28] 69 [29] 95 [30] 87 ;

end;
